NAME : pr136.196835.tour
COMMENT : Cost = 25732_196835
COMMENT : Found by LKH [Keld Helsgaun] Thu Nov 16 17:54:30 2017
TYPE : TOUR
DIMENSION : 145
TOUR_SECTION
1
6
137
7
20
43
44
36
45
46
35
47
56
68
57
58
48
55
67
59
60
49
140
29
40
63
65
72
74
84
86
96
95
110
109
118
120
131
136
130
129
135
121
117
105
100
87
83
76
75
62
53
51
38
31
19
138
78
82
89
92
91
103
102
90
81
69
80
79
70
32
143
27
77
93
101
114
115
124
125
113
104
94
88
37
144
133
141
2
9
10
3
11
12
4
13
22
34
23
24
14
21
33
25
26
15
16
8
142
28
42
50
54
66
111
112
116
123
126
134
127
128
122
71
61
41
139
5
18
52
85
119
132
107
108
106
99
97
98
73
64
39
30
145
17
-1
EOF
